     Program PWSCF v.6.7MaX starts on  8Dec2021 at 10:22:52

     Waiting for input...
     Reading input from standard input

     Current dimensions of program PWSCF are:
     Max number of different atomic species (ntypx) = 10
     Max number of k-points (npk) =  40000
     Max angular momentum in pseudopotentials (lmaxx) =  3

     gamma-point specific algorithms are used
     Message from routine find_sym:
     Not a group! Trying with lower acceptance parameter...
     Message from routine find_sym:
     Still not a group! symmetry disabled

     bravais-lattice index     =            4
     lattice parameter (alat)  =      13.9629  a.u.
     unit-cell volume          =    4715.0297 (a.u.)^3
     number of atoms/cell      =           17
     number of atomic types    =            1
     number of electrons       =        68.00
     number of Kohn-Sham states=           41
     kinetic-energy cutoff     =      35.0000  Ry
     charge density cutoff     =     200.0000  Ry
     scf convergence threshold =      1.0E-08
     mixing beta               =       0.7000
     number of iterations used =            8  plain     mixing
     energy convergence thresh.=      1.0E-04
     force convergence thresh. =      1.0E-03
     Exchange-correlation= PBE
                           (   1   4   3   4   0   0   0)
     nstep                     =           50

     celldm(1)=  13.962867  celldm(2)=   0.000000  celldm(3)=   2.000000
     celldm(4)=   0.000000  celldm(5)=   0.000000  celldm(6)=   0.000000

     crystal axes: (cart. coord. in units of alat)
               a(1) = (   1.000000   0.000000   0.000000 )
               a(2) = (  -0.500000   0.866025   0.000000 )
               a(3) = (   0.000000   0.000000   2.000000 )

     reciprocal axes: (cart. coord. in units 2 pi/alat)
               b(1) = (  1.000000  0.577350 -0.000000 )
               b(2) = (  0.000000  1.154701  0.000000 )
               b(3) = (  0.000000 -0.000000  0.500000 )

     PseudoPot. # 1 for C  read from file:
     /home/lucia/Programmi/qe-6.7/pseudo/C.pbe-n-rrkjus_psl.1.0.0.UPF
     MD5 check sum: 3eea53a8c0c024778a530aaaebd3d0de
     Pseudo is Ultrasoft + core correction, Zval =  4.0
     Generated using &quot;atomic&quot; code by A. Dal Corso  v.6.3MaX
     Using radial grid of 1073 points,  4 beta functions with:
                l(1) =   0
                l(2) =   0
                l(3) =   1
                l(4) =   1
     Q(r) pseudized with 0 coefficients

     atomic species   valence    mass     pseudopotential
        C              4.00    12.01070     C ( 1.00)

     No symmetry found

   Cartesian axes

     site n.     atom                  positions (alat units)
         1           C   tau(   1) = (   0.0000000   0.0000000   0.0000000  )
         2           C   tau(   2) = (  -0.1666670   0.2886757   0.0000000  )
         3           C   tau(   3) = (  -0.3333340   0.5773514   0.0000000  )
         4           C   tau(   4) = (   0.3333340   0.0000000   0.0000000  )
         5           C   tau(   5) = (   0.1666670   0.2886757   0.0000000  )
         6           C   tau(   6) = (   0.0000000   0.5773514   0.0000000  )
         7           C   tau(   7) = (   0.6666680   0.0000000   0.0000000  )
         8           C   tau(   8) = (   0.5000010   0.2886757   0.0000000  )
         9           C   tau(   9) = (   0.3333340   0.5773514   0.0000000  )
        10           C   tau(  10) = (   0.0000000   0.1924505   0.0000000  )
        11           C   tau(  11) = (  -0.1666670   0.4811262   0.0000000  )
        12           C   tau(  12) = (  -0.3333340   0.7698019   0.0000000  )
        13           C   tau(  13) = (   0.3333340   0.1924505   0.0000000  )
        14           C   tau(  14) = (   0.0000000   0.7698019   0.0000000  )
        15           C   tau(  15) = (   0.6666680   0.1924505   0.0000000  )
        16           C   tau(  16) = (   0.5000010   0.4811262   0.0000000  )
        17           C   tau(  17) = (   0.3333340   0.7698019   0.0000000  )

     number of k points=     1  Gaussian smearing, width (Ry)=  0.0100
                       cart. coord. in units 2pi/alat
        k(    1) = (   0.0000000   0.0000000   0.0000000), wk =   2.0000000

     Check: negative core charge=   -0.000025

     Initial potential from superposition of free atoms

     starting charge   67.99929, renormalised to   68.00000

     negative rho (up, down):  3.957E-04 0.000E+00
     Starting wfcs are   68 randomized atomic wfcs

     Self-consistent Calculation

     iteration #  1     ecut=    35.00 Ry     beta= 0.70
     Davidson diagonalization with overlap
     ethr =  1.00E-02,  avg # of iterations =  2.0

     negative rho (up, down):  8.332E-04 0.000E+00

     total energy              =    -209.98512851 Ry
     estimated scf accuracy    <       1.93750792 Ry

[...]

     End of self-consistent calculation

          k = 0.0000 0.0000 0.0000 (  8214 PWs)   bands (ev):

   -21.4190 -19.1108 -19.1107 -19.0821 -18.7846 -18.7845 -17.1122 -14.7223
   -14.4973 -14.4972 -13.2765 -12.4691 -12.4691 -11.7357 -11.7238 -11.7237
   -10.6859 -10.6858  -9.4313  -7.9840  -7.9480  -7.9479  -7.9100  -7.2290
    -6.7043  -6.6568  -6.6567  -6.5262  -6.5261  -6.0716  -6.0715  -4.8838
    -1.9708  -1.9291  -1.9291  -1.7377  -1.7376  -0.2529   1.0566   1.7895
     2.0685

     the Fermi energy is    -1.9075 ev

!    total energy              =    -210.50971514 Ry
     estimated scf accuracy    <          7.7E-09 Ry
     smearing contrib. (-TS)   =      -0.01792273 Ry
     internal energy E=F+TS    =    -210.49179242 Ry

     The total energy is F=E-TS. E is the sum of the following terms:
     one-electron contribution =   -1247.11910454 Ry
     hartree contribution      =     635.29567777 Ry
     xc contribution           =     -78.14952009 Ry
     ewald contribution        =     479.48115445 Ry

     convergence has been achieved in  19 iterations

[...]

     Forces acting on atoms (cartesian axes, Ry/au):

     atom    1 type  1   force =     0.06325605   -0.03623148   -0.00000001
     atom    2 type  1   force =    -0.01920694   -0.01124664    0.00000013
     atom    3 type  1   force =    -0.00034425    0.07286111    0.00000015
     atom    4 type  1   force =    -0.06292672   -0.03625203   -0.00000011
     atom    5 type  1   force =     0.00019559   -0.08468462   -0.00000000
     atom    6 type  1   force =    -0.07309393    0.04205098    0.00000001
     atom    7 type  1   force =     0.00015276    0.02261928    0.00000001
     atom    8 type  1   force =     0.01967336   -0.01124085   -0.00000007
     atom    9 type  1   force =     0.07243775    0.04211020    0.00000025
     atom   10 type  1   force =    -0.00339030    0.10564505   -0.00000003
     atom   11 type  1   force =     0.08967732   -0.05591726   -0.00000033
     atom   12 type  1   force =    -0.00029199   -0.00004621   -0.00000013
     atom   13 type  1   force =     0.00397484    0.10562848    0.00000012
     atom   14 type  1   force =     0.09298676   -0.04969849    0.00000012
     atom   15 type  1   force =     0.00025284    0.00002691    0.00000005
     atom   16 type  1   force =    -0.08971889   -0.05588505    0.00000007
     atom   17 type  1   force =    -0.09363422   -0.04973938   -0.00000023

     Total force =     0.325216     Total SCF correction =     0.000177

     BFGS Geometry Optimization
     Energy error            =      0.0E+00
     Gradient error          =      1.1E-01

     number of scf cycles    =   1
     number of bfgs steps    =   0

     energy   new            =    -210.5097151442 Ry

     new trust radius        =       0.1060253449 bohr
     new conv_thr            =       0.0000000100 Ry

ATOMIC_POSITIONS (angstrom)
C             0.0334736607       -0.0191728719       -0.0000000062
C            -1.2416381331        2.1270245136        0.0000000697
C            -2.4631306796        4.3045083982        0.0000000783
C             2.4296491240       -0.0191837502       -0.0000000570
C             1.2315777552        2.0881628068       -0.0000000021
C            -0.0386796429        4.2882043787        0.0000000061
C             4.9259778582        0.0119696070        0.0000000029
C             3.7048334596        2.1270275754       -0.0000000368
C             2.5012809169        4.2882357134        0.0000001338
C            -0.0017940718        1.4778890142       -0.0000000151
C            -1.1840190629        3.5253699028       -0.0000001750
C            -2.4631030258        5.6879115681       -0.0000000682
C             2.4650519047        1.4778802475        0.0000000660
C             0.0492064724        5.6616367100        0.0000000649
C             4.9260308187        1.4219983028        0.0000000238
C             3.6469455763        3.5253869445        0.0000000385
C             2.4133994136        5.6616150733       -0.0000001235

     Writing output data file ./outvac/vacancy.save/
     NEW-OLD atomic charge density approx. for the potential

[...]

     Total force =     0.199921     Total SCF correction =     0.000134
     Energy error            =      2.7E-02
     Gradient error          =      8.4E-02

[...]

     energy   old            =    -210.5097151442 Ry
     energy   new            =    -210.5369232718 Ry

     CASE: energy  _new < energy  _old

[...]

     WARNING: bfgs curvature condition failed, Theta= 0.513
     new trust radius        =       0.0385024925 bohr
     new conv_thr            =       0.0000000019 Ry

[...]

     CASE: energy  _new > energy  _old

[...]

     Threshold (ethr) on eigenvalues was too large:
     Diagonalizing with lowered threshold

     Davidson diagonalization with overlap
     ethr =  2.72E-08,  avg # of iterations =  2.0

[...]

     WARNING: bfgs curvature condition failed, Theta= 0.821
     new trust radius        =       0.0016906233 bohr
     new conv_thr            =       0.0000000001 Ry

[...]

     number of scf cycles    =  20
     number of bfgs steps    =  18

     energy   old            =    -210.5602074548 Ry
     energy   new            =    -210.5602141879 Ry

     CASE: energy  _new < energy  _old

     new trust radius        =       0.0011021270 bohr
     new conv_thr            =            1.0E-10 Ry

ATOMIC_POSITIONS (angstrom)
C             0.0300580264        0.0185288217       -0.0000000860
C            -1.2451030957        2.1358190070       -0.0000001058
C            -2.4481236095        4.2821768282       -0.0000000578
C             2.4421728297        0.0042054333        0.0000000723
C             1.2451463427        2.0438250524        0.0000001755
C            -0.0645955452        4.3281736140        0.0000000453
C             4.9368899678        0.0119892386        0.0000001170
C             3.7165389029        2.1436819906        0.0000000502
C             2.5241459101        4.3100185202       -0.0000001340
C            -0.0095784314        1.4308213719        0.0000001029
C            -1.2329446646        3.5278382298       -0.0000003509
C            -2.4578416462        5.6911495101       -0.0000000309
C             2.4583807818        1.4389700067       -0.0000003306
C             0.0298519832        5.6656614611        0.0000005069
C             4.9309108775        1.4225197016        0.0000000296
C             3.6672147649        3.5186078420        0.0000002737
C             2.4119389499        5.6624775049       -0.0000002776

     Writing output data file ./outvac/vacancy.save/
     NEW-OLD atomic charge density approx. for the potential

     Check: negative core charge=   -0.000025

[...]

     Self-consistent Calculation

[...]

     Threshold (ethr) on eigenvalues was too large:
     Diagonalizing with lowered threshold

     Davidson diagonalization with overlap
     ethr =  6.93E-09,  avg # of iterations =  4.0

[...]

     total energy              =    -210.56021882 Ry
     estimated scf accuracy    <          5.6E-10 Ry

     iteration #  9     ecut=    35.00 Ry     beta= 0.70
     Davidson diagonalization with overlap
     ethr =  8.28E-13,  avg # of iterations =  2.0

[...]

     End of self-consistent calculation

          k = 0.0000 0.0000 0.0000 (  8214 PWs)   bands (ev):

   -21.4892 -19.2994 -19.1786 -19.0474 -19.0271 -18.9503 -17.2109 -15.0328
   -14.5432 -14.4699 -13.0766 -12.7415 -12.6476 -12.1645 -12.0332 -11.9933
   -10.4412 -10.3375  -9.4901  -8.6055  -8.2464  -8.1488  -7.5043  -6.8699
    -6.8076  -6.6793  -6.6067  -6.5999  -6.5527  -6.3141  -6.1799  -4.9263
    -2.3167  -1.8650  -1.7125  -1.5460  -1.2816   0.0906   1.0542   1.7741
     2.0657

     the Fermi energy is    -1.7897 ev

!    total energy              =    -210.56021882 Ry
     estimated scf accuracy    <          6.4E-11 Ry
     smearing contrib. (-TS)   =      -0.00846809 Ry
     internal energy E=F+TS    =    -210.55175073 Ry

     The total energy is F=E-TS. E is the sum of the following terms:
     one-electron contribution =   -1250.65667501 Ry
     hartree contribution      =     636.97968703 Ry
     xc contribution           =     -78.36893524 Ry
     ewald contribution        =     481.49417250 Ry

     convergence has been achieved in   9 iterations

     negative rho (up, down):  1.663E-03 0.000E+00

     Forces acting on atoms (cartesian axes, Ry/au):

     atom    1 type  1   force =    -0.00025820   -0.00009591    0.00000001
     atom    2 type  1   force =     0.00014635   -0.00014450   -0.00000001
     atom    3 type  1   force =     0.00024526   -0.00009498   -0.00000001
     atom    4 type  1   force =     0.00012313   -0.00054670   -0.00000000
     atom    5 type  1   force =     0.00010258    0.00008227    0.00000003
     atom    6 type  1   force =     0.00004532   -0.00001845   -0.00000000
     atom    7 type  1   force =     0.00000458    0.00005664    0.00000002
     atom    8 type  1   force =    -0.00009013   -0.00027167   -0.00000001
     atom    9 type  1   force =     0.00016510   -0.00010611   -0.00000000
     atom   10 type  1   force =    -0.00008899    0.00011798    0.00000003
     atom   11 type  1   force =    -0.00011775    0.00024520   -0.00000004
     atom   12 type  1   force =    -0.00004150    0.00011792    0.00000001
     atom   13 type  1   force =     0.00016471    0.00029189   -0.00000006
     atom   14 type  1   force =    -0.00037995    0.00012194    0.00000005
     atom   15 type  1   force =     0.00020777    0.00008725    0.00000000
     atom   16 type  1   force =    -0.00038433    0.00010646    0.00000002
     atom   17 type  1   force =     0.00015606    0.00005077   -0.00000003

     Total force =     0.001125     Total SCF correction =     0.000017
     Energy error            =      4.6E-06
     Gradient error          =      5.5E-04

     bfgs converged in  21 scf cycles and  19 bfgs steps
     (criteria: energy <  1.0E-04 Ry, force <  1.0E-03 Ry/Bohr)

     End of BFGS Geometry Optimization

     Final energy   =    -210.5602188195 Ry

     File ./outvac/vacancy.bfgs deleted, as requested
Begin final coordinates

ATOMIC_POSITIONS (angstrom)
C             0.0300580264        0.0185288217       -0.0000000860
C            -1.2451030957        2.1358190070       -0.0000001058
C            -2.4481236095        4.2821768282       -0.0000000578
C             2.4421728297        0.0042054333        0.0000000723
C             1.2451463427        2.0438250524        0.0000001755
C            -0.0645955452        4.3281736140        0.0000000453
C             4.9368899678        0.0119892386        0.0000001170
C             3.7165389029        2.1436819906        0.0000000502
C             2.5241459101        4.3100185202       -0.0000001340
C            -0.0095784314        1.4308213719        0.0000001029
C            -1.2329446646        3.5278382298       -0.0000003509
C            -2.4578416462        5.6911495101       -0.0000000309
C             2.4583807818        1.4389700067       -0.0000003306
C             0.0298519832        5.6656614611        0.0000005069
C             4.9309108775        1.4225197016        0.0000000296
C             3.6672147649        3.5186078420        0.0000002737
C             2.4119389499        5.6624775049       -0.0000002776
End final coordinates

     Writing output data file ./outvac/vacancy.save/

     General routines

   This run was terminated on:  10:37:46   8Dec2021

   JOB DONE.