     Program PWSCF v.6.7MaX starts on  8Dec2021 at 18: 2:24

     Waiting for input...
     Reading input from standard input

     Current dimensions of program PWSCF are:
     Max number of different atomic species (ntypx) = 10
     Max number of k-points (npk) =  40000
     Max angular momentum in pseudopotentials (lmaxx) =  3

     bravais-lattice index     =            4
     lattice parameter (alat)  =      13.9629  a.u.
     unit-cell volume          =    4715.0297 (a.u.)^3
     number of atoms/cell      =           17
     number of atomic types    =            1
     number of electrons       =        68.00
     number of Kohn-Sham states=           41
     kinetic-energy cutoff     =      35.0000  Ry
     charge density cutoff     =     200.0000  Ry
     scf convergence threshold =      1.0E-08
     mixing beta               =       0.7000
     number of iterations used =            8  plain     mixing
     Exchange-correlation= PBE
                           (   1   4   3   4   0   0   0)

     celldm(1)=  13.962867  celldm(2)=   0.000000  celldm(3)=   2.000000
     celldm(4)=   0.000000  celldm(5)=   0.000000  celldm(6)=   0.000000

     crystal axes: (cart. coord. in units of alat)
               a(1) = (   1.000000   0.000000   0.000000 )
               a(2) = (  -0.500000   0.866025   0.000000 )
               a(3) = (   0.000000   0.000000   2.000000 )

     reciprocal axes: (cart. coord. in units 2 pi/alat)
               b(1) = (  1.000000  0.577350 -0.000000 )
               b(2) = (  0.000000  1.154701  0.000000 )
               b(3) = (  0.000000 -0.000000  0.500000 )

     PseudoPot. # 1 for C  read from file:
     /home/lucia/Programmi/qe-6.7/pseudo/C.pbe-n-rrkjus_psl.1.0.0.UPF
     MD5 check sum: 3eea53a8c0c024778a530aaaebd3d0de
     Pseudo is Ultrasoft + core correction, Zval =  4.0
     Generated using &quot;atomic&quot; code by A. Dal Corso  v.6.3MaX
     Using radial grid of 1073 points,  4 beta functions with:
                l(1) =   0
                l(2) =   0
                l(3) =   1
                l(4) =   1
     Q(r) pseudized with 0 coefficients

     atomic species   valence    mass     pseudopotential
        C              4.00    12.01070     C ( 1.00)

     Starting magnetic structure
     atomic species   magnetization
        C            0.100

      2 Sym. Ops. (no inversion) found

   Cartesian axes

     site n.     atom                  positions (alat units)
         1           C   tau(   1) = (   0.0040680   0.0025077  -0.0000000  )
         2           C   tau(   2) = (  -0.1685115   0.2890605  -0.0000000  )
         3           C   tau(   3) = (  -0.3313276   0.5795473  -0.0000000  )
         4           C   tau(   4) = (   0.3305222   0.0005692   0.0000000  )
         5           C   tau(   5) = (   0.1685174   0.2766101   0.0000000  )
         6           C   tau(   6) = (  -0.0087423   0.5857724   0.0000000  )
         7           C   tau(   7) = (   0.6681558   0.0016226   0.0000000  )
         8           C   tau(   8) = (   0.5029942   0.2901246   0.0000000  )
         9           C   tau(   9) = (   0.3416164   0.5833153  -0.0000000  )
        10           C   tau(  10) = (  -0.0012963   0.1936465   0.0000000  )
        11           C   tau(  11) = (  -0.1668660   0.4774555  -0.0000000  )
        12           C   tau(  12) = (  -0.3326428   0.7702368  -0.0000000  )
        13           C   tau(  13) = (   0.3327158   0.1947493  -0.0000000  )
        14           C   tau(  14) = (   0.0040401   0.7667873   0.0000001  )
        15           C   tau(  15) = (   0.6673465   0.1925230   0.0000000  )
        16           C   tau(  16) = (   0.4963187   0.4762063   0.0000000  )
        17           C   tau(  17) = (   0.3264304   0.7663563  -0.0000000  )

     number of k points=     5  Gaussian smearing, width (Ry)=  0.0100
                       cart. coord. in units 2pi/alat
        k(    1) = (   0.0000000   0.0000000   0.0000000), wk =   0.1111111
        k(    2) = (   0.0000000   0.3849002   0.0000000), wk =   0.2222222
        k(    3) = (   0.3333333   0.5773503   0.0000000), wk =   0.2222222
        k(    4) = (  -0.3333333   0.1924501   0.0000000), wk =   0.2222222
        k(    5) = (   0.3333333   0.1924501   0.0000000), wk =   0.2222222

     Check: negative core charge=   -0.000025
     Generating pointlists ...
     new r_m :   0.0749 (alat units)  1.0452 (a.u.) for type    1

     Initial potential from superposition of free atoms

     starting charge   67.99929, renormalised to   68.00000

     negative rho (up, down):  2.172E-04 1.777E-04
     Starting wfcs are   68 randomized atomic wfcs

     Self-consistent Calculation

     iteration #  1     ecut=    35.00 Ry     beta= 0.70
     Davidson diagonalization with overlap
     ethr =  1.00E-02,  avg # of iterations =  2.0

     negative rho (up, down):  4.173E-04 4.257E-04

     total energy              =    -210.35348523 Ry
     estimated scf accuracy    <       1.67063943 Ry

     total magnetization       =     1.46 Bohr mag/cell
     absolute magnetization    =     1.47 Bohr mag/cell

[...]

     total energy              =    -210.65619451 Ry
     estimated scf accuracy    <       0.00000001 Ry

[...]

     iteration # 22     ecut=    35.00 Ry     beta= 0.70
     Davidson diagonalization with overlap
     ethr =  1.54E-11,  avg # of iterations =  4.3

     negative rho (up, down):  8.179E-04 8.039E-04

     Magnetic moment per site:
     atom:    1    charge:    1.4574    magn:    0.0172    constr:    0.0000
     atom:    2    charge:    1.5008    magn:    0.0257    constr:    0.0000
     atom:    3    charge:    1.4575    magn:    0.0144    constr:    0.0000
     atom:    4    charge:    1.4638    magn:    0.0243    constr:    0.0000
     atom:    5    charge:    1.4213    magn:    0.1406    constr:    0.0000
     atom:    6    charge:    1.4220    magn:    0.1232    constr:    0.0000
     atom:    7    charge:    1.5041    magn:    0.0245    constr:    0.0000
     atom:    8    charge:    1.4985    magn:    0.0267    constr:    0.0000
     atom:    9    charge:    1.4136    magn:    0.0171    constr:    0.0000
     atom:   10    charge:    1.4883    magn:   -0.0087    constr:    0.0000
     atom:   11    charge:    1.4843    magn:   -0.0092    constr:    0.0000
     atom:   12    charge:    1.5045    magn:   -0.0075    constr:    0.0000
     atom:   13    charge:    1.4900    magn:   -0.0078    constr:    0.0000
     atom:   14    charge:    1.4904    magn:   -0.0081    constr:    0.0000
     atom:   15    charge:    1.4924    magn:   -0.0084    constr:    0.0000
     atom:   16    charge:    1.4836    magn:   -0.0087    constr:    0.0000
     atom:   17    charge:    1.4829    magn:   -0.0076    constr:    0.0000

     End of self-consistent calculation

 ------ SPIN UP ------------

          k = 0.0000 0.0000 0.0000 ( 16427 PWs)   bands (ev):

   -21.4769 -19.2994 -19.1590 -19.0302 -18.9881 -18.9267 -17.1402 -15.0202
   -14.5950 -14.3854 -13.0464 -12.7089 -12.5861 -12.1608 -11.9984 -11.9447
   -10.4148 -10.3029  -9.5143  -8.5453  -8.1882  -8.1271  -7.4780  -6.8872
    -6.7625  -6.7173  -6.6625  -6.6053  -6.5982  -6.2358  -6.0914  -4.8793
    -2.3259  -2.0207  -1.6936  -1.6043  -1.1747   0.1343   1.0991   1.8339
     2.6777

[...]

          k =-0.3333 0.1925 0.0000 ( 16511 PWs)   bands (ev):

[...]

 ------ SPIN DOWN ----------

[...]

          k =-0.3333 0.1925 0.0000 ( 16511 PWs)   bands (ev):

[...]

          k = 0.3333 0.1925 0.0000 ( 16511 PWs)   bands (ev):

   -21.1806 -20.2927 -19.5865 -19.0569 -17.9490 -17.5579 -16.6139 -16.3579
   -15.1970 -14.0578 -13.7250 -13.4418 -12.5823 -11.2939 -11.2390 -10.8096
    -9.7143  -9.3084  -9.1447  -9.0739  -8.7627  -8.3218  -8.1061  -7.6678
    -7.2632  -7.0715  -6.7676  -6.7030  -5.4364  -5.1448  -4.8170  -4.4327
    -3.7888  -2.2224  -1.6924  -0.7614  -0.1340   0.2788   0.9683   1.5091
     1.5658

     the Fermi energy is    -2.2198 ev

!    total energy              =    -210.65619456 Ry
     estimated scf accuracy    <          5.4E-09 Ry
     smearing contrib. (-TS)   =      -0.00355933 Ry
     internal energy E=F+TS    =    -210.65263523 Ry

     The total energy is F=E-TS. E is the sum of the following terms:
     one-electron contribution =   -1251.04175879 Ry
     hartree contribution      =     637.28621081 Ry
     xc contribution           =     -78.39125975 Ry
     ewald contribution        =     481.49417250 Ry

     total magnetization       =     0.93 Bohr mag/cell
     absolute magnetization    =     1.24 Bohr mag/cell

     convergence has been achieved in  22 iterations

     Writing output data file ./outvac/vacancy.save/

     General routines

   This run was terminated on:  18:21:48   8Dec2021

   JOB DONE.